<instance format="XCSP3" type="CSP">
  <constraints>
    <binPacking id="c3">
      <list>  y1 y2 y3 y4 y5 y6 y7 </list>
      <sizes> 12 7 21 36 19 22 30 </sizes>
      <conditions> (le,20)(eq,8)(lt,l) </conditions>
    </binPacking>
  </constraints>
</instance>
